# reference: https://docs.lammps.org/Howto_spc.html
units real
atom_style full
region box block -8 8 -8 8 -8 8
create_box 2 box  bond/types 1 angle/types 1 &
                extra/bond/per/atom 2 extra/angle/per/atom 1 extra/special/per/atom 2

# water
mass 1 15.9994 	# oxygen
mass 2 1.008	# hydrogen

# potential energy
pair_style lj/cut/coul/cut 10.0
pair_coeff 1 1 0.1553 3.166
pair_coeff 1 2 0.0    1.0
pair_coeff 2 2 0.0    1.0

bond_style zero
bond_coeff 1 1.0

angle_style zero
angle_coeff 1 109.47

# prepare water molecules
molecule water spce.mol
variable nwater	equal 100
create_atoms 0 random ${nwater} 34564 NULL mol water 21367 overlap 0.8 maxtry 100

# simulation variable
timestep 1.0

# constraint - bond/angle
fix rigid     all shake 0.0001 10 10000 b 1 a 1

# minimization
#minimize 0.0 0.0 1000 10000
minimize 0.0 1.0e-8 1000 100000

# generate velocity
velocity all create 300.0 5463576

# time evolution - nvt ensemble
fix integrate all nvt temp 300.0 300.0 100.0 #iso 1.0 1.0 100.0

thermo_style custom step temp press etotal density pe ke
thermo 1000

# short equilibration
run 100000
unfix integrate

# time evolution - npt ensemble
fix integrate all npt temp 300.0 300.0 100.0 iso 1.0 1.0 100.0

# short equilibration
run 200000

# DUMP TRAJECTORY
dump            prod all custom 200 spce.lammpstrj id type xu yu zu
dump_modify     prod sort  id

# production run
timestep 2.0
run 200000
write_data spce.data nocoeff
